2 15 15 11 11 2 20 13 12 10 11 5 
16 8 19 16 15 9 12 6 16 19 13 19 
12 15 15 14 7 1 10 3 20 17 10 8 
11 15 1 17 3 8 18 19 1 11 5 17 
19 18 13 19 9 11 12 18 10 18 1 7 
4 19 13 11 8 2 10 10 5 12 4 7 
8 1 9 15 3 2 8 16 8 17 4 13 
8 1 6 6 12 12 2 18 17 9 13 18 
19 4 7 6 7 19 4 8 18 9 3 14 
15 15 13 15 19 4 18 3 13 13 16 14 
19 7 8 14 3 8 1 17 20 13 10 7 
14 13 12 20 5 7 14 19 10 10 3 16 
